KPOINTS created by Atomic Simulation Environment
100 
Reciprocal
0.000000 0.000000 0.000000 1.0 
0.033333 0.000000 0.033333 1.0 
0.066667 0.000000 0.066667 1.0 
0.100000 0.000000 0.100000 1.0 
0.133333 0.000000 0.133333 1.0 
0.166667 0.000000 0.166667 1.0 
0.200000 0.000000 0.200000 1.0 
0.233333 0.000000 0.233333 1.0 
0.266667 0.000000 0.266667 1.0 
0.300000 0.000000 0.300000 1.0 
0.333333 0.000000 0.333333 1.0 
0.366667 0.000000 0.366667 1.0 
0.400000 0.000000 0.400000 1.0 
0.433333 0.000000 0.433333 1.0 
0.466667 0.000000 0.466667 1.0 
0.500000 0.000000 0.500000 1.0 
0.500000 0.035714 0.535714 1.0 
0.500000 0.071429 0.571429 1.0 
0.500000 0.107143 0.607143 1.0 
0.500000 0.142857 0.642857 1.0 
0.500000 0.178571 0.678571 1.0 
0.500000 0.214286 0.714286 1.0 
0.500000 0.250000 0.750000 1.0 
0.475000 0.275000 0.750000 1.0 
0.450000 0.300000 0.750000 1.0 
0.425000 0.325000 0.750000 1.0 
0.400000 0.350000 0.750000 1.0 
0.375000 0.375000 0.750000 1.0 
0.351562 0.351562 0.703125 1.0 
0.328125 0.328125 0.656250 1.0 
0.304688 0.304688 0.609375 1.0 
0.281250 0.281250 0.562500 1.0 
0.257812 0.257812 0.515625 1.0 
0.234375 0.234375 0.468750 1.0 
0.210938 0.210938 0.421875 1.0 
0.187500 0.187500 0.375000 1.0 
0.164062 0.164062 0.328125 1.0 
0.140625 0.140625 0.281250 1.0 
0.117188 0.117188 0.234375 1.0 
0.093750 0.093750 0.187500 1.0 
0.070312 0.070312 0.140625 1.0 
0.046875 0.046875 0.093750 1.0 
0.023438 0.023438 0.046875 1.0 
0.000000 0.000000 0.000000 1.0 
0.038462 0.038462 0.038462 1.0 
0.076923 0.076923 0.076923 1.0 
0.115385 0.115385 0.115385 1.0 
0.153846 0.153846 0.153846 1.0 
0.192308 0.192308 0.192308 1.0 
0.230769 0.230769 0.230769 1.0 
0.269231 0.269231 0.269231 1.0 
0.307692 0.307692 0.307692 1.0 
0.346154 0.346154 0.346154 1.0 
0.384615 0.384615 0.384615 1.0 
0.423077 0.423077 0.423077 1.0 
0.461538 0.461538 0.461538 1.0 
0.500000 0.500000 0.500000 1.0 
0.513889 0.472222 0.513889 1.0 
0.527778 0.444444 0.527778 1.0 
0.541667 0.416667 0.541667 1.0 
0.555556 0.388889 0.555556 1.0 
0.569444 0.361111 0.569444 1.0 
0.583333 0.333333 0.583333 1.0 
0.597222 0.305556 0.597222 1.0 
0.611111 0.277778 0.611111 1.0 
0.625000 0.250000 0.625000 1.0 
0.600000 0.250000 0.650000 1.0 
0.575000 0.250000 0.675000 1.0 
0.550000 0.250000 0.700000 1.0 
0.525000 0.250000 0.725000 1.0 
0.500000 0.250000 0.750000 1.0 
0.500000 0.270833 0.729167 1.0 
0.500000 0.291667 0.708333 1.0 
0.500000 0.312500 0.687500 1.0 
0.500000 0.333333 0.666667 1.0 
0.500000 0.354167 0.645833 1.0 
0.500000 0.375000 0.625000 1.0 
0.500000 0.395833 0.604167 1.0 
0.500000 0.416667 0.583333 1.0 
0.500000 0.437500 0.562500 1.0 
0.500000 0.458333 0.541667 1.0 
0.500000 0.479167 0.520833 1.0 
0.500000 0.500000 0.500000 1.0 
0.487500 0.487500 0.525000 1.0 
0.475000 0.475000 0.550000 1.0 
0.462500 0.462500 0.575000 1.0 
0.450000 0.450000 0.600000 1.0 
0.437500 0.437500 0.625000 1.0 
0.425000 0.425000 0.650000 1.0 
0.412500 0.412500 0.675000 1.0 
0.400000 0.400000 0.700000 1.0 
0.387500 0.387500 0.725000 1.0 
0.375000 0.375000 0.750000 1.0 
0.625000 0.250000 0.625000 1.0 
0.604167 0.208333 0.604167 1.0 
0.583333 0.166667 0.583333 1.0 
0.562500 0.125000 0.562500 1.0 
0.541667 0.083333 0.541667 1.0 
0.520833 0.041667 0.520833 1.0 
0.500000 0.000000 0.500000 1.0 
