KPOINTS created by Atomic Simulation Environment
50 
Reciprocal
0.000000 0.000000 0.000000 1.0 
0.071429 0.000000 0.071429 1.0 
0.142857 0.000000 0.142857 1.0 
0.214286 0.000000 0.214286 1.0 
0.285714 0.000000 0.285714 1.0 
0.357143 0.000000 0.357143 1.0 
0.428571 0.000000 0.428571 1.0 
0.500000 0.000000 0.500000 1.0 
0.500000 0.083333 0.583333 1.0 
0.500000 0.166667 0.666667 1.0 
0.500000 0.250000 0.750000 1.0 
0.437500 0.312500 0.750000 1.0 
0.375000 0.375000 0.750000 1.0 
0.328125 0.328125 0.656250 1.0 
0.281250 0.281250 0.562500 1.0 
0.234375 0.234375 0.468750 1.0 
0.187500 0.187500 0.375000 1.0 
0.140625 0.140625 0.281250 1.0 
0.093750 0.093750 0.187500 1.0 
0.046875 0.046875 0.093750 1.0 
0.000000 0.000000 0.000000 1.0 
0.083333 0.083333 0.083333 1.0 
0.166667 0.166667 0.166667 1.0 
0.250000 0.250000 0.250000 1.0 
0.333333 0.333333 0.333333 1.0 
0.416667 0.416667 0.416667 1.0 
0.500000 0.500000 0.500000 1.0 
0.525000 0.450000 0.525000 1.0 
0.550000 0.400000 0.550000 1.0 
0.575000 0.350000 0.575000 1.0 
0.600000 0.300000 0.600000 1.0 
0.625000 0.250000 0.625000 1.0 
0.562500 0.250000 0.687500 1.0 
0.500000 0.250000 0.750000 1.0 
0.500000 0.291667 0.708333 1.0 
0.500000 0.333333 0.666667 1.0 
0.500000 0.375000 0.625000 1.0 
0.500000 0.416667 0.583333 1.0 
0.500000 0.458333 0.541667 1.0 
0.500000 0.500000 0.500000 1.0 
0.479167 0.479167 0.541667 1.0 
0.458333 0.458333 0.583333 1.0 
0.437500 0.437500 0.625000 1.0 
0.416667 0.416667 0.666667 1.0 
0.395833 0.395833 0.708333 1.0 
0.375000 0.375000 0.750000 1.0 
0.625000 0.250000 0.625000 1.0 
0.583333 0.166667 0.583333 1.0 
0.541667 0.083333 0.541667 1.0 
0.500000 0.000000 0.500000 1.0 
