Fe Fe Mn  O
   1.0000000000000000
     5.6919146770052107   -0.0000000000000001    0.0000000000000000
     2.8459573385026062    4.9293427064600097   -0.0000000000000001
     2.8459573385026062    1.6431142354866706    4.6474288727070947
   Fe Fe   Mn   O
     4     2     8
Direct
  0.5000000000000000  0.5000000000000000  0.5000000000000000
  0.5000000000000000  0.5000000000000000  0.0000000000000000
  0.0000000000000000  0.5000000000000000  0.5000000000000000
  0.5000000000000000  0.0000000000000000  0.5000000000000000
  0.1250000000000000  0.1250000000000000  0.1250000000000000
  0.8750000000000000  0.8750000000000000  0.8750000000000000
  0.7407247214959938  0.7407247214959938  0.7407247214959938
  0.2592752785040062  0.2592752785040062  0.7221741644879742
  0.2592752785040062  0.7221741644879813  0.2592752785040062
  0.7221741644879742  0.2592752785040062  0.2592752785040062
  0.7407247214959938  0.2778258355120187  0.7407247214959938
  0.2778258355120187  0.7407247214959938  0.7407247214959938
  0.2592752785040062  0.2592752785040062  0.2592752785040062
  0.7407247214959938  0.7407247214959938  0.2778258355120187

  0.00000000E+00  0.00000000E+00  0.00000000E+00
  0.00000000E+00  0.00000000E+00  0.00000000E+00
  0.00000000E+00  0.00000000E+00  0.00000000E+00
  0.00000000E+00  0.00000000E+00  0.00000000E+00
  0.00000000E+00  0.00000000E+00  0.00000000E+00
  0.00000000E+00  0.00000000E+00  0.00000000E+00
  0.00000000E+00  0.00000000E+00  0.00000000E+00
  0.00000000E+00  0.00000000E+00  0.00000000E+00
  0.00000000E+00  0.00000000E+00  0.00000000E+00
  0.00000000E+00  0.00000000E+00  0.00000000E+00
  0.00000000E+00  0.00000000E+00  0.00000000E+00
  0.00000000E+00  0.00000000E+00  0.00000000E+00
  0.00000000E+00  0.00000000E+00  0.00000000E+00
  0.00000000E+00  0.00000000E+00  0.00000000E+00